p edge 48 101
e 1 4
e 1 5
e 1 9
e 1 13
e 1 14
e 1 43
e 2 3
e 2 5
e 2 8
e 2 11
e 2 12
e 2 28
e 2 35
e 2 40
e 2 44
e 2 45
e 3 7
e 3 8
e 3 12
e 3 16
e 3 19
e 3 22
e 3 23
e 3 25
e 3 30
e 4 7
e 4 21
e 4 29
e 4 43
e 5 11
e 5 14
e 5 15
e 5 25
e 5 34
e 5 44
e 5 45
e 6 7
e 6 13
e 6 15
e 6 17
e 6 18
e 6 19
e 6 20
e 6 23
e 6 24
e 6 46
e 6 47
e 7 12
e 7 15
e 7 17
e 7 19
e 7 29
e 7 30
e 8 12
e 8 33
e 8 35
e 8 39
e 9 13
e 9 26
e 9 32
e 10 11
e 10 16
e 10 21
e 10 27
e 10 42
e 10 48
e 11 21
e 11 34
e 11 36
e 11 41
e 11 44
e 11 45
e 12 19
e 13 14
e 13 32
e 13 46
e 13 47
e 15 17
e 15 19
e 15 25
e 15 33
e 15 38
e 16 22
e 16 27
e 16 31
e 17 19
e 17 23
e 17 24
e 18 20
e 18 24
e 21 48
e 22 27
e 22 31
e 23 24
e 23 25
e 27 31
e 28 37
e 28 40
e 33 38
e 44 45
e 46 47
